Gurobi Optimizer version 9.1.2 build v9.1.2rc0 (linux64)
Thread count: 36 physical cores, 72 logical processors, using up to 32 threads
Optimize a model with 12 rows, 57 columns and 590 nonzeros
Model fingerprint: 0xf32eec78
Model has 47 quadratic constraints
Coefficient statistics:
  Matrix range     [2e-05, 3e+00]
  QMatrix range    [1e+00, 1e+00]
  QLMatrix range   [1e+00, 1e+00]
  Objective range  [8e-03, 7e-01]
  Bounds range     [1e+00, 1e+00]
  RHS range        [1e+00, 1e+00]
Presolve removed 9 rows and 0 columns

Continuous model is non-convex -- solving as a MIP.

Presolve removed 9 rows and 0 columns
Presolve time: 0.00s
Presolved: 189 rows, 57 columns, 443 nonzeros
Presolved model has 47 bilinear constraint(s)
Variable types: 57 continuous, 0 integer (0 binary)

Root relaxation: objective -1.743721e+00, 44 iterations, 0.00 seconds

    Nodes    |    Current Node    |     Objective Bounds      |     Work
 Expl Unexpl |  Obj  Depth IntInf | Incumbent    BestBd   Gap | It/Node Time

     0     0   -1.74372    0   38          -   -1.74372      -     -    0s
H    0     0                       0.6147548   -1.74372   384%     -    0s
     0     0   -1.64739    0    1    0.61475   -1.64739   368%     -    0s
H    0     0                      -1.6450460   -1.64739  0.14%     -    0s
     0     0     cutoff    0        -1.64505   -1.64505  0.00%     -    0s

Cutting planes:
  RLT: 25
  BQP: 3

Explored 1 nodes (76 simplex iterations) in 0.01 seconds
Thread count was 32 (of 72 available processors)

Solution count 2: -1.64505 0.614755 
No other solutions better than -1.64505

Optimal solution found (tolerance 1.00e-04)
Best objective -1.645045978473e+00, best bound -1.645045978473e+00, gap 0.0000%

User-callback calls 78, time in user-callback 0.00 sec
Gurobi Optimizer version 9.1.2 build v9.1.2rc0 (linux64)
Thread count: 36 physical cores, 72 logical processors, using up to 32 threads
Optimize a model with 24 rows, 125 columns and 2580 nonzeros
Model fingerprint: 0x03cb840a
Model has 105 quadratic constraints
Coefficient statistics:
  Matrix range     [4e-06, 5e+01]
  QMatrix range    [1e+00, 1e+00]
  QLMatrix range   [1e+00, 1e+00]
  Objective range  [1e-02, 1e+00]
  Bounds range     [1e+00, 1e+00]
  RHS range        [1e+00, 1e+00]
Presolve removed 10 rows and 0 columns

Continuous model is non-convex -- solving as a MIP.

Presolve removed 10 rows and 0 columns
Presolve time: 0.00s
Presolved: 429 rows, 125 columns, 2142 nonzeros
Presolved model has 105 bilinear constraint(s)
Variable types: 125 continuous, 0 integer (0 binary)

Root relaxation: objective -6.362937e+00, 139 iterations, 0.00 seconds

    Nodes    |    Current Node    |     Objective Bounds      |     Work
 Expl Unexpl |  Obj  Depth IntInf | Incumbent    BestBd   Gap | It/Node Time

     0     0   -6.36294    0   75          -   -6.36294      -     -    0s
H    0     0                       0.0167326   -6.36294      -     -    0s
     0     0   -4.94831    0   83    0.01673   -4.94831      -     -    0s
H    0     0                      -1.7838981   -4.94831   177%     -    0s
     0     0   -4.90630    0   70   -1.78390   -4.90630   175%     -    0s
     0     0   -4.79896    0   53   -1.78390   -4.79896   169%     -    0s
H    0     0                      -2.8191773   -4.79896  70.2%     -    0s
     0     0   -4.76988    0   53   -2.81918   -4.76988  69.2%     -    0s
     0     0   -4.74356    0   59   -2.81918   -4.74356  68.3%     -    0s
     0     0   -4.69509    0   62   -2.81918   -4.69509  66.5%     -    0s
     0     0   -4.68104    0   53   -2.81918   -4.68104  66.0%     -    0s
     0     0   -4.67785    0   61   -2.81918   -4.67785  65.9%     -    0s
     0     0   -4.67616    0   53   -2.81918   -4.67616  65.9%     -    0s
     0     0   -4.67436    0   53   -2.81918   -4.67436  65.8%     -    0s
     0     0   -4.67271    0   53   -2.81918   -4.67271  65.7%     -    0s
     0     0   -4.67237    0   53   -2.81918   -4.67237  65.7%     -    0s
     0     0   -4.67217    0   53   -2.81918   -4.67217  65.7%     -    0s
H    0     0                      -2.9557217   -4.67217  58.1%     -    0s
H    0     0                      -3.5233033   -4.67217  32.6%     -    0s
H    0     0                      -3.5711518   -4.67217  30.8%     -    0s
     0     2   -4.67217    0   53   -3.57115   -4.67217  30.8%     -    0s
*  523   428              17      -3.7471865   -4.23040  12.9%  21.5    0s
*  597   462              24      -4.0673077   -4.23040  4.01%  19.8    0s
*  806   343              15      -4.0761254   -4.12240  1.14%  17.0    0s
*  807   343              15      -4.0763131   -4.12240  1.13%  17.0    0s
*  957   238              18      -4.0771043   -4.08861  0.28%  14.7    0s
* 1030   238              15      -4.0776378   -4.08861  0.27%  14.0    0s
* 1036   238              18      -4.0779810   -4.08861  0.26%  14.0    0s
* 1054   238              19      -4.0780932   -4.08861  0.26%  13.8    0s
* 1056   147              17      -4.0787251   -4.08861  0.24%  13.8    0s
* 1061   147              21      -4.0787367   -4.08861  0.24%  13.7    0s
* 1278    14              19      -4.0787374   -4.08610  0.18%  11.7    0s
* 1303    14              17      -4.0787393   -4.07989  0.03%  11.6    0s
* 1305    14              18      -4.0787395   -4.07989  0.03%  11.6    0s
* 1307    14              19      -4.0787407   -4.07989  0.03%  11.6    0s
* 1421     0              20      -4.0787411   -4.07874  0.00%  10.7    0s

Cutting planes:
  RLT: 43
  BQP: 9
  PSD: 28

Explored 1431 nodes (15599 simplex iterations) in 0.51 seconds
Thread count was 32 (of 72 available processors)

Solution count 10: -4.07874 -4.07874 -4.07874 ... -4.07764
No other solutions better than -4.07874

Optimal solution found (tolerance 1.00e-04)
Best objective -4.078741066712e+00, best bound -4.078741066712e+00, gap 0.0000%

User-callback calls 3133, time in user-callback 0.00 sec



objective value: -4.078741066712478
objective bound: -4.078741066712478
x_opt: [1.0, 0.0, 1.0, 0.0, 0.16313559555292842, 0.0, 1.0, 1.0, 0.4971286349509631, 0.0, 0.0, 0.0, 0.7288256966600573, 0.0, 0.45288485703248144, 0.3047010264747578, 0.0, 0.0, 0.0, 0.0]
GUROBI solution time: 0.5067470073699951




